%SETS
JOBS     = 1..10;
MACHINES = 1..10;
SPEED    = 5;

time        = array3d(JOBS,MACHINES,1..SPEED,[20, 7, 5, 4, 3, 20, 7, 4, 4, 3, 37, 12, 9, 7, 6, 32, 11, 7, 6, 5, 25, 8, 6, 5, 4, 14, 4, 3, 2, 2, 8, 3, 2, 1, 1, 94, 32, 23, 19, 16, 10, 3, 2, 2, 1, 6, 2, 1, 1, 1, 1, 1, 1, 1, 1, 105, 36, 25, 21, 18, 3, 1, 1, 1, 1, 10, 3, 2, 2, 1, 1, 1, 1, 1, 1, 6, 2, 1, 1, 1, 12, 4, 3, 2, 2, 58, 20, 14, 11, 10, 10, 3, 2, 2, 1, 108, 37, 26, 22, 19, 1, 1, 1, 1, 1, 11, 3, 2, 2, 2, 12, 4, 3, 2, 2, 37, 12, 9, 7, 6, 72, 24, 17, 14, 13, 9, 3, 2, 2, 1, 14, 5, 3, 2, 2, 8, 2, 1, 1, 1, 41, 14, 10, 8, 7, 26, 9, 6, 5, 4, 1, 1, 1, 1, 1, 23, 8, 5, 4, 4, 41, 14, 10, 8, 7, 1, 1, 1, 1, 1, 15, 5, 3, 3, 2, 40, 13, 9, 8, 7, 115, 39, 28, 23, 20, 22, 7, 5, 4, 4, 1, 1, 1, 1, 1, 15, 5, 3, 3, 2, 5, 1, 1, 1, 1, 25, 8, 6, 5, 4, 6, 2, 1, 1, 1, 4, 1, 1, 1, 1, 19, 6, 4, 4, 3, 2, 1, 1, 1, 1, 33, 11, 8, 6, 6, 72, 25, 17, 14, 13, 74, 25, 18, 15, 13, 12, 4, 2, 2, 2, 23, 8, 5, 4, 4, 28, 9, 6, 5, 5, 18, 6, 4, 3, 3, 16, 5, 4, 3, 2, 1, 1, 1, 1, 1, 1, 1, 1, 1, 1, 14, 5, 3, 3, 2, 14, 5, 3, 2, 2, 5, 1, 1, 1, 1, 19, 6, 4, 3, 3, 23, 8, 5, 4, 4, 33, 11, 8, 6, 5, 9, 3, 2, 1, 1, 13, 4, 3, 2, 2, 44, 15, 10, 9, 8, 22, 7, 5, 4, 4, 31, 10, 7, 6, 5, 18, 6, 4, 3, 3, 45, 15, 11, 9, 8, 33, 11, 8, 6, 5, 52, 17, 12, 10, 9, 5, 2, 1, 1, 1, 9, 3, 2, 1, 1, 16, 5, 4, 3, 3, 17, 6, 4, 3, 3, 24, 8, 5, 4, 4, 44, 15, 10, 8, 7, 19, 6, 4, 3, 3, 72, 25, 17, 14, 13, 33, 11, 8, 6, 5, 5, 1, 1, 1, 1, 25, 8, 6, 5, 4, 21, 7, 5, 4, 3, 37, 12, 9, 7, 6, 42, 14, 10, 8, 7, 9, 3, 2, 1, 1, 3, 1, 1, 1, 1, 26, 9, 6, 5, 4, 1, 1, 1, 1, 1, 40, 13, 9, 8, 7, 18, 6, 4, 3, 3, 151, 52, 37, 30, 27, 107, 36, 26, 21, 19, 6, 2, 1, 1, 1, 49, 16, 12, 9, 8, 43, 14, 10, 8, 7, 6, 2, 1, 1, 1, 27, 9, 6, 5, 4, 97, 33, 23, 19, 17, 34, 11, 8, 6, 6]);
energy      = array3d(JOBS,MACHINES,1..SPEED,[81, 93, 95, 96, 97, 81, 93, 96, 96, 97, 69, 88, 91, 93, 94, 72, 89, 93, 94, 95, 77, 92, 94, 95, 96, 86, 96, 97, 98, 98, 92, 97, 98, 99, 99, 39, 72, 79, 82, 85, 90, 97, 98, 98, 99, 94, 98, 99, 99, 99, 99, 99, 99, 99, 99, 34, 69, 77, 81, 83, 97, 99, 99, 99, 99, 90, 97, 98, 98, 99, 99, 99, 99, 99, 99, 94, 98, 99, 99, 99, 88, 96, 97, 98, 98, 55, 81, 86, 89, 90, 90, 97, 98, 98, 99, 33, 69, 77, 80, 82, 99, 99, 99, 99, 99, 89, 97, 98, 98, 98, 88, 96, 97, 98, 98, 69, 88, 91, 93, 94, 48, 78, 84, 86, 87, 91, 97, 98, 98, 99, 86, 95, 97, 98, 98, 92, 98, 99, 99, 99, 66, 86, 90, 92, 93, 77, 91, 94, 95, 96, 99, 99, 99, 99, 99, 79, 92, 95, 96, 96, 66, 86, 90, 92, 93, 99, 99, 99, 99, 99, 86, 95, 97, 97, 98, 67, 87, 91, 92, 93, 31, 67, 75, 79, 81, 80, 93, 95, 96, 96, 99, 99, 99, 99, 99, 86, 95, 97, 97, 98, 95, 99, 99, 99, 99, 77, 92, 94, 95, 96, 94, 98, 99, 99, 99, 96, 99, 99, 99, 99, 82, 94, 96, 96, 97, 98, 99, 99, 99, 99, 71, 89, 92, 94, 94, 48, 77, 84, 86, 87, 47, 77, 83, 86, 87, 88, 96, 98, 98, 98, 79, 92, 95, 96, 96, 75, 91, 94, 95, 95, 83, 94, 96, 97, 97, 85, 95, 96, 97, 98, 99, 99, 99, 99, 99, 99, 99, 99, 99, 99, 86, 95, 97, 97, 98, 86, 95, 97, 98, 98, 95, 99, 99, 99, 99, 82, 94, 96, 97, 97, 79, 92, 95, 96, 96, 71, 89, 92, 94, 95, 91, 97, 98, 99, 99, 87, 96, 97, 98, 98, 64, 86, 90, 91, 92, 80, 93, 95, 96, 96, 73, 90, 93, 94, 95, 83, 94, 96, 97, 97, 63, 86, 89, 91, 92, 71, 89, 92, 94, 95, 59, 84, 88, 90, 91, 95, 98, 99, 99, 99, 91, 97, 98, 99, 99, 85, 95, 96, 97, 97, 84, 94, 96, 97, 97, 78, 92, 95, 96, 96, 64, 86, 90, 92, 93, 82, 94, 96, 97, 97, 48, 77, 84, 86, 87, 71, 89, 92, 94, 95, 95, 99, 99, 99, 99, 77, 92, 94, 95, 96, 81, 93, 95, 96, 97, 69, 88, 91, 93, 94, 65, 86, 90, 92, 93, 91, 97, 98, 99, 99, 97, 99, 99, 99, 99, 77, 91, 94, 95, 96, 99, 99, 99, 99, 99, 67, 87, 91, 92, 93, 83, 94, 96, 97, 97, 22, 59, 69, 74, 76, 34, 69, 77, 81, 82, 94, 98, 99, 99, 99, 61, 85, 88, 91, 92, 65, 86, 90, 92, 93, 94, 98, 99, 99, 99, 76, 91, 94, 95, 96, 37, 71, 79, 82, 84, 71, 89, 92, 94, 94]);
precedence  = array2d(JOBS,MACHINES,[2, 4, 7, 9, 6, 3, 8, 5, 0, 1, 5, 8, 1, 2, 0, 9, 6, 4, 7, 3, 3, 1, 5, 9, 6, 4, 0, 7, 2, 8, 2, 4, 6, 5, 7, 9, 3, 1, 0, 8, 6, 1, 9, 2, 8, 7, 5, 3, 0, 4, 8, 4, 6, 9, 5, 3, 7, 0, 2, 1, 3, 5, 1, 0, 8, 4, 6, 7, 2, 9, 7, 5, 4, 8, 3, 6, 9, 1, 2, 0, 3, 2, 1, 0, 5, 6, 9, 8, 7, 4, 7, 5, 6, 3, 0, 9, 1, 8, 2, 4]);
releaseDate = [40, 60, 90, 80, 50, 0, 20, 30, 100, 50];
dueDate     = [104, 150, 157, 217, 131, 34, 118, 107, 166, 244];